WARNING: Method definition require(Symbol) in module Base at loading.jl:345 overwritten in module ConicBenchmarkUtilities at /home/ubuntu/.julia/v0.5/Requires/src/require.jl:12.
Coin0505I Presolved problem not optimal, resolve after postsolve
Coin0505I Presolved problem not optimal, resolve after postsolve
#SOLVERNAME# PAJ_CBC_tols_MOSEK
#SOLVER# Pajarito.PajaritoSolver(2,3600.0,1.0e-5,false,Cbc.CbcMathProgSolverInterface.CbcSolver(Any[(:logLevel,0),(:ratioGap,0.0),(:seconds,3600.0),(:integerTolerance,1.0e-8),(:primalTolerance,1.0e-8)]),MathProgBase.DefaultMIPSolver(),0,false,true,Mosek.MosekMathProgSolverInterface.MosekSolver(Any[(:LOG,0),(:NUM_THREADS,1),(:OPTIMIZER_MAX_TIME,120.0)]),true,false,false,true,false,true,false,true,true,true,true,false,false,true,false,false,false,true,1.0e-10,0.0001,1.0e-6,0.01,1.0e-6)
#INSTANCE# sssd-weak-30-8.cbf.gz
#TIMELIMIT# 3600.0

Transforming original data......Done     0.00s

Creating conic model data......Done     0.00s

Creating MIP model......Done     0.00s

Cone types summary:
Cone       | Count    | Min dim  | Max dim 
       SOC |       24 |        3 |        3

Solving conic relaxation......Done     0.02s
 - Relaxation status    =        Optimal
 - Relaxation objective =  194478.190473

Creating conic subproblem model......Done     0.00s

Starting iterative outer approximation algorithm

Iter | Best obj       | OA obj         | Rel gap     | Time (s)   
   1 |  +5.294619e+05 |  +4.524434e+05 |   1.455e-01 |   1.989e+03
   2 |  +5.294619e+05 |  +5.278249e+05 |   3.092e-03 |   2.024e+03
Presolve 232 (-623) rows, 56 (-432) columns and 568 (-1664) elements
Perturbing problem by 0.001 % of 300283.37 - largest nonzero change 0.31000999 (% 0.00010857959) - largest zero change 0.29643285
0  Obj 302009.43 Primal inf 133.79008 (216)
79  Obj 460969.45 Primal inf 1.0159129 (40)
115  Obj 529471.59
Optimal - objective value 529462.21
After Postsolve, objective 529462.21, infeasibilities - dual 0 (0), primal 0 (0)
Optimal objective 529462.2085 - 115 iterations time 0.002, Presolve 0.00
Cbc0045I Given objective value 529462, computed 529462
Cbc0045I Solution with objective value 529462 saved
   3 |  +5.294619e+05 |  +5.281998e+05 |   2.384e-03 |   2.128e+03
Presolve 296 (-623) rows, 56 (-432) columns and 728 (-1696) elements
Perturbing problem by 0.001 % of 352777.44 - largest nonzero change 0.38002 (% 0.00010810571) - largest zero change 0.34823654
0  Obj 302010.81 Primal inf 186.4846 (280)
80  Obj 508403.73 Primal inf 0.86454143 (66)
116  Obj 529473.1
Optimal - objective value 529462.21
After Postsolve, objective 529462.21, infeasibilities - dual 0 (0), primal 0 (0)
Optimal objective 529462.2085 - 116 iterations time 0.002, Presolve 0.00
Cbc0045I Given objective value 529462, computed 529462
Cbc0045I Solution with objective value 529462 saved
   4 |  +5.292634e+05 |  +5.284120e+05 |   1.608e-03 |   2.381e+03
Presolve 358 (-623) rows, 56 (-432) columns and 882 (-1728) elements
Perturbing problem by 0.001 % of 710607.22 - largest nonzero change 0.54824331 (% 8.9359239e-05) - largest zero change 0.54482924
0  Obj 302009.04 Primal inf 260.30331 (342)
82  Obj 508400.6 Primal inf 2.2499343 (106)
129  Obj 529469.94
Optimal - objective value 529462.21
After Postsolve, objective 529462.21, infeasibilities - dual 0 (0), primal 0 (0)
Optimal objective 529462.2085 - 129 iterations time 0.002, Presolve 0.00
Cbc0045I Given objective value 529462, computed 529462
Cbc0045I Solution with objective value 529462 saved
   5 |  +5.287781e+05 |  +5.286580e+05 |   2.271e-04 |   2.670e+03
Presolve 420 (-623) rows, 56 (-432) columns and 1036 (-1760) elements
Perturbing problem by 0.001 % of 710607.22 - largest nonzero change 0.54824331 (% 7.7515891e-05) - largest zero change 0.54482924
0  Obj 302437.34 Primal inf 308.41256 (404)
83  Obj 511822.55 Primal inf 3.3470654 (157)
136  Obj 529270.89
Optimal - objective value 529263.2
After Postsolve, objective 529263.2, infeasibilities - dual 0 (0), primal 6.1117051e-07 (4)
Presolved model was optimal, full model needs cleaning up
0  Obj 529263.2 Primal inf 5.2954196e-07 (6)
5  Obj 529263.36
Optimal - objective value 529263.36
Optimal objective 529263.3571 - 141 iterations time 0.002, Presolve 0.00
Cbc0045I Given objective value 529263, computed 529263
Cbc0045I Solution with objective value 529263 saved
   6 |  +5.287781e+05 |  +5.287595e+05 |   3.519e-05 |   2.817e+03
Presolve 478 (-623) rows, 56 (-432) columns and 1178 (-1792) elements
Perturbing problem by 0.001 % of 710607.22 - largest nonzero change 0.54824331 (% 7.7515891e-05) - largest zero change 0.54482924
0  Obj 302178.97 Primal inf 349.97049 (462)
84  Obj 515370.61 Primal inf 3.7751629 (197)
141  Obj 528786.02
Optimal - objective value 528778.27
After Postsolve, objective 528778.27, infeasibilities - dual 0 (0), primal 1.0530809e-06 (5)
Presolved model was optimal, full model needs cleaning up
0  Obj 528778.27 Primal inf 8.8825253e-07 (5)
3  Obj 528778.39
Optimal - objective value 528778.39
Optimal objective 528778.3874 - 144 iterations time 0.002, Presolve 0.00
Cbc0045I Given objective value 528778, computed 528778
Cbc0045I Solution with objective value 528778 saved
   7 |  +5.287663e+05 |  +5.287652e+05 |   1.952e-06 |   3.272e+03

Pajarito MICP solve summary:
 - Total time (s)       =       3.27e+03
 - Status               =        Optimal
 - Best feasible obj.   =  +5.287663e+05
 - Final OA obj. bound  =  +5.287652e+05
 - Relative opt. gap    =      1.952e-06
 - MIP solve count      =              7
 - Conic solve count    =              7
 - Feas. solution count =              7
 - Integer repeat count =              0

Timers (s):
 - Setup                =       1.90e-02
 -- Transform data      =       2.49e-04
 -- Create conic data   =       1.57e-04
 -- Create MIP data     =       1.82e-03
 -- Load/solve relax    =       1.54e-02
 - Iterative algorithm  =       3.27e+03
 -- Solve MIPs          =       3.27e+03
 -- Solve conic model   =       1.13e-02
 -- Process conic data  =       1.84e-03
 -- Add conic solution  =       6.65e-05
 -- Add dual cuts       =       5.40e-04
 -- Use outer inf/cuts  =       6.42e-04

Presolve 530 (-623) rows, 56 (-432) columns and 1302 (-1824) elements
Perturbing problem by 0.001 % of 710607.22 - largest nonzero change 0.54824331 (% 7.7515891e-05) - largest zero change 0.54482924
0  Obj 302178.98 Primal inf 390.43535 (514)
85  Obj 515370.58 Primal inf 4.0644877 (231)
146  Obj 528786.01
Optimal - objective value 528778.29
After Postsolve, objective 528778.29, infeasibilities - dual 0 (0), primal 1.5339127e-06 (6)
Presolved model was optimal, full model needs cleaning up
0  Obj 528778.29 Primal inf 1.3284978e-06 (6)
2  Obj 528778.39
Optimal - objective value 528778.39
Optimal objective 528778.3875 - 148 iterations time 0.002, Presolve 0.00
Cbc0045I Given objective value 528778, computed 528778
Cbc0045I Solution with objective value 528778 saved
WARNING: Solver does not appear to support adding constraints to an existing model. Hot-start is disabled.
#STATUS# Optimal
#OBJVAL# 528766.2632405628
#OBJBOUND# 528765.2312174367
#TIMESOLVER# 3271.653347969055
#TIMEALL# 3271.6535820961
#SOLUTION# [0.9999999999999999,0.0,0.0,0.0,0.0,0.0,0.0,0.0,0.0,0.0,0.0,0.0,0.0,0.0,0.0,1.0,0.0,0.9999999999999999,0.0,0.0,0.0,0.0,0.0,0.0,0.0,1.0,0.0,0.0,0.0,0.0,0.0,0.0,0.0,0.0,0.0,1.0,0.0,0.0,0.0,0.0,0.0,0.0,0.0,0.0,0.0,0.0,1.0,0.0,0.0,0.0,0.0,0.0,0.0,0.0,0.0,1.0,0.0,0.0,0.0,0.0,0.0,0.0,1.0,0.0,0.0,0.0,0.0,0.0,1.0,0.0,0.0,0.0,0.0,0.0,0.0,1.0,0.0,0.0,0.0,0.0,0.0,0.0,0.0,0.0,1.0,0.0,0.0,0.0,0.0,0.0,0.0,0.0,0.0,0.9999999999999999,0.0,0.0,0.0,0.0,0.0,0.0,0.0,0.0,0.0,0.9999999999999999,0.0,0.0,0.0,0.0,0.0,1.0,0.0,0.0,0.0,0.0,0.0,1.0,0.0,0.0,0.0,0.0,0.0,0.0,0.0,0.0,0.0,0.0,0.0,1.0,1.0,0.0,0.0,0.0,0.0,0.0,0.0,0.0,0.0,0.0,0.0,0.9999999999999999,0.0,0.0,0.0,0.0,0.0,0.0,0.0,0.0,0.0,0.0,1.0,0.0,0.0,0.0,0.0,0.0,0.0,0.0,0.0,1.0,0.0,1.0,0.0,0.0,0.0,0.0,0.0,0.0,0.0,0.0,0.0,0.0,1.0,0.0,0.0,0.0,0.0,0.0,1.0,0.0,0.0,0.0,0.0,0.0,0.0,0.0,0.0,0.0,0.0,0.0,1.0,0.0,1.0,0.0,0.0,0.0,0.0,0.0,0.0,0.0,0.0,0.0,1.0,0.0,0.0,0.0,0.0,0.0,0.0,0.0,0.0,0.0,0.0,0.9999999999999999,0.0,0.0,0.0,0.0,1.0,0.0,0.0,0.0,0.0,0.0,0.0,0.0,0.0,0.0,0.9999999999999999,0.0,0.0,0.0,0.0,1.0,0.0,0.0,0.0,0.0,0.0,0.0,0.0,0.0,0.9999999999999999,0.0,0.0,1.0,0.0,0.0,1.0,0.0,0.0,1.0,0.0,0.0,1.0,0.0,0.0,1.0,0.0,0.0,0.9999999999999999,0.0,0.0,1.0,0.7242545374760919,0.8327197621678737,0.7225529852968055,0.7941964802085886,0.7342527606964826,0.7317099462439242,0.7393665424212751,0.8133998483685951,-0.0,-0.0,0.42003923172298796,-0.0,-0.0,0.45436285109448893,-0.0,-0.0,0.4194663416722331,-0.0,-0.0,0.44264744853618704,-0.0,-0.0,0.4233827908554913,-0.0,-0.0,0.42253609574751355,-0.0,-0.0,0.4250780596551886,-0.0,-0.0,0.44854964782770357,0.0,0.36212726873804596,0.36212726873804596,0.15210765287655198,0.41635988108393684,0.41635988108393684,0.18917845553669238,0.3612764926484027,0.3612764926484027,0.15154332181228616,0.3970982401042943,0.3970982401042943,0.17577451583620077,0.3671263803482413,0.3671263803482413,0.15543498492049565,0.3658549731219621,0.3658549731219621,0.1545869252482053,0.36968327121063754,0.36968327121063754,0.15714424138304325,0.40669992418429757,0.40669992418429757,0.18242510027044578,1.7242545374760918,1.7242545374760918,1.7242545374760918,1.8327197621678737,1.8327197621678737,1.8327197621678737,1.7225529852968053,1.7225529852968053,1.7225529852968053,1.7941964802085886,1.7941964802085886,1.7941964802085886,1.7342527606964826,1.7342527606964826,1.7342527606964826,1.731709946243924,1.731709946243924,1.731709946243924,1.739366542421275,1.739366542421275,1.739366542421275,1.8133998483685951,1.8133998483685951,1.8133998483685951,0.7242545374760919,0.7242545374760919,0.7242545374760919,0.8327197621678737,0.8327197621678737,0.8327197621678737,0.7225529852968055,0.7225529852968055,0.7225529852968055,0.7941964802085886,0.7941964802085886,0.7941964802085886,0.7342527606964826,0.7342527606964826,0.7342527606964826,0.7317099462439242,0.7317099462439242,0.7317099462439242,0.7393665424212751,0.7393665424212751,0.7393665424212751,0.8133998483685951,0.8133998483685951,0.8133998483685951]
